hexagonal unit cell
1.0
0.5        -0.8660254  0.0 
0.5         0.8660254  0.0 
0.0         0.0        2.0 
any atom
1
direct
0.00000 0.000000 0.000000
0.33333 0.666667 0.500000
