Li2FeSe2_SCEL1_1_1_1_0_0_0/3                     
   1.00000000000000     
     3.8511262576863907    0.0000000000000000    0.0000000000000000
    -1.9255631288431954    3.3351731755587712    0.0000000000000000
     0.0000000000000000    0.0000000000000000    6.1326753166606398
   Fe   Li   Se 
     1     2     2
Direct
  0.3333330000000032  0.6666669999999968  0.6257012643865139
  0.0000000000000000  0.0000000000000000  0.3495550691578657
  0.6666669999999968  0.3333330000000032  0.0268432865670718
  0.0000000000000000  0.0000000000000000  0.7508303712375408
  0.3333330000000032  0.6666669999999968  0.2470700086510149
 
