BCC Primitive Cell
1.0
-1.000000 1.000000 1.000000
1.000000 -1.000000 1.000000
1.000000 1.000000 -1.000000
Ni
1
direct
0.000000 0.000000 0.000000 Ni
