Diamond Cubic Primitive Cell
1.0
0.500000 0.500000 0.000000
0.000000 0.500000 0.500000
0.500000 0.000000 0.500000
Ni
2
direct
0.000000 0.000000 0.000000 Ni
0.250000 0.250000 0.250000 Ni
