BCC Conventional Cell
1.0
1.000000 0.000000 0.000000
0.000000 1.000000 0.000000
0.000000 0.000000 1.000000
Ni
2
direct
0.000000 0.000000 0.000000 Ni
0.500000 0.500000 0.500000 Ni
