DIamond Cubic Coventional Cell
1.0
1.000000 0.000000 0.000000
0.000000 1.000000 0.000000
0.000000 0.000000 1.000000
C
8
direct
0.000000 0.000000 0.000000 C
0.000000 0.500000 0.500000 C
0.500000 0.000000 0.500000 C
0.500000 0.500000 0.000000 C
0.250000 0.250000 0.250000 C
0.750000 0.750000 0.250000 C
0.750000 0.250000 0.750000 C
0.250000 0.750000 0.750000 C
